x04m01e2t1tp5
3236
3236
3422
3422
3459
3459
3459
3459
3459
3481
3481
3481
3481
3481
3481
3481
3481
3481
3481
3481
3565
3565
3572
3572
3572
3572
3572
3572
3572
3572
3572
3666
3666
3666
3681
3681
3681
3681
3681
3681
3681
3681
3681
3681
3681
3681
3681
3681
3681
3681
3681
3681
3681
3681
3681
3681
3681
3681
3681
3681
3681
3681
3681
3681
3681
3681
3681
3681
3681
3681
3681
3681
3681
3681
3681
3681
3681
3681
3681
3681
3703
3703
3703
3703
3703
3703
3703
3703
3703
3703
3703
3703
3703
3703
3703
3703
3703
3703
3703
3703
3703
3703
3703
3703
3703
3703
3703
3703
3703
3703
3703
3703
3823
3823
3823
3823
3823
3823
3823
3823
3823
3823
3823
3823
3823
3823
3823
3823
3823
3823
3823
3823
3823
3823
3823
3823
3823
3823
3823
3823
3823
3823
3823
3823
3823
3823
3823
3823
3857
3857
3857
3857
3857
3857
3857
3857
3857
3857
3857
3857
3857
3857
3857
3857
3857
3857
3857
3857
3857
3857
3857
3857
3857
3857
3857
3857
3858
3858
3858
3858
3858
3858
3858
3858
3858
3858
3858
3858
3858
3858
3858
3858
3858
3858
3858
3858
3858
3858
3858
3858
3858
3891
3891
3891
3891
3891
3891
3891
3891
3891
3891
3891
3891
3891
3891
3891
3891
3891
3891
3891
3891
3891
3891
3891
3891
3891
3891
3891
3891
3891
3891
3891
3891
3891
3891
3891
3891
3891
3891
3891
3891
3891
3891
3891
3891
3891
3891
3891
3891
3891
3891
3891
3891
3891
3891
3891
3891
3891
3891
3891
3891
3891
3891
3891
3891
3891
3891
3891
3891
3891
3891
3891
3891
3891
3891
3891
3891
3891
3891
3891
3891
3891
3891
3891
3891
3891
3891
3891
3891
3891
3891
3891
3891
3891
3891
3891
3891
3891
3891
3891
3891
3891
3891
3891
3891
3891
3891
3891
3891
3891
3891
3891
3891
3891
3891
3891
3891
3891
3891
3891
3891
3891
3891
3891
3891
3891
3891
3891
3891
3891
3891
3891
3891
3891
3891
3926
3926
3926
3926
3926
3926
3926
3926
3926
3926
3926
3926
3926
3926
3926
3926
3926
3926
3926
3926
3926
3926
3926
3926
3926
3926
3926
3926
3926
3926
3926
3926
3926
3926
3926
3926
3926
3926
3926
3926
3926
3926
3926
3926
3926
3926
3926
3926
3926
3926
3926
3926
3926
3926
3926
3926
3926
3926
3926
3926
3926
3926
3926
3926
3926
3926
3926
3926
3926
3926
3926
3926
3926
3926
3926
3926
3926
3975
3975
3975
3975
3975
3975
3975
3975
3975
3975
3975
3975
3975
3975
3975
3975
3975
3975
3982
3982
3982
3982
3982
3982
3982
3982
3982
3982
3982
3982
3982
3982
3982
3982
3982
3982
3982
3982
3982
3982
3982
3982
3982
3982
3982
3982
3982
3982
3982
3982
3982
3982
3982
3982
3982
3982
3982
3982
3982
3982
3982
3982
3982
3982
3982
3982
3982
3982
3982
3982
3982
3982
3982
3982
3982
3982
3982
3982
3982
3982
3982
3982
3982
3982
3982
3982
3982
3982
3982
3982
3982
3982
3982
3982
3982
3982
3982
3982
3982
3982
3982
3982
3982
3982
3982
3982
3982
4011
4011
4011
4011
4011
4011
4011
4011
4011
4011
4011
4011
4011
4011
4011
4011
4011
4011
4011
4011
4011
4011
4011
4011
4011
4011
4011
4011
4011
4011
4011
4011
4011
4011
4011
4011
4011
4011
4011
4011
4011
4011
4011
4011
4011
4011
4011
4011
4011
4011
4011
4011
4011
4011
4011
4011
4011
4011
4011
4011
4011
4011
4011
4011
4011
4011
4011
4011
4011
4029
4029
4029
4029
4029
4029
4029
4029
4029
4029
4029
4029
4029
4029
4029
4029
4029
4029
4029
4029
4029
4029
4029
4029
4029
4029
4029
4029
4029
4029
4029
4029
4029
4029
4029
4029
4029
4029
4029
4029
4029
4029
4029
4029
4029
4029
4029
4029
4029
4029
4029
4029
4029
4029
4029
4029
4029
4029
4029
4029
4029
4029
4029
4029
4029
4029
4029
4029
4029
4029
4029
4029
4029
4029
4029
4029
4029
4029
4029
4029
4029
4029
4029
4029
4029
4029
4029
4029
4029
4029
4029
4029
4029
4029
4029
4029
4029
4029
4029
4029
4029
4029
4029
4029
4029
4029
4029
4029
4029
4029
4029
4029
4029
4029
4029
4029
4029
4029
4029
4029
4029
4029
4029
4029
4029
4029
4029
4029
4029
4029
4029
4029
4029
4029
4029
4029
4029
4029
4029
4029
4029
4029
4029
4029
4029
4029
4029
4029
4029
4029
4029
4029
4029
4029
4029
4029
4029
4029
4029
4029
4029
4029
4029
4029
4029
4029
4029
4029
4029
4029
4029
4029
4029
4029
4029
4029
4029
4029
4029
4029
4029
4029
4029
4029
4029
4029
4029
4029
4029
4029
4029
4029
4029
4029
4029
4029
4029
4029
4029
4029
4029
4029
4029
4029
4029
4029
4029
4029
4029
4029
4029
4029
4029
4029
4029
4029
4029
4029
4029
4029
4029
4029
4029
4029
4029
4029
4029
4029
4029
4029
4029
4029
4029
4029
4029
4029
4029
4029
4029
4029
4029
4029
4029
4029
4029
4029
4029
4029
4029
4029
4029
4029
4029
4029
4029
4029
4029
4029
4029
4029
4029
4029
4029
4029
4029
4029
4029
4029
4029
4029
4029
4029
4029
4029
4029
4029
4029
4029
4029
4029
4029
4029
4029
4029
4029
4029
4029
4029
4029
4029
4029
4029
4029
4029
4029
4029
4029
4029
4029
4029
4029
4029
4029
4029
4029
4029
4029
4029
4029
4029
4029
4029
4029
4029
4029
4029
4029
4029
4029
4029
4029
4029
4029
4029
4029
4029
4029
4029
4029
4029
4029
4029
4029
4029
4029
4029
4029
4029
4029
4029
4029
4029
4029
4029
4029
4029
4029
4029
4029
4029
4029
4029
4029
4029
4029
4029
4029
4029
4029
4029
4029
4029
4029
4029
4029
4029
4029
4029
4029
4029
4029
4029
4029
4029
4029
4029
4029
4029
4029
4029
4029
4029
4029
4029
4029
4029
4029
4029
4029
4029
4029
4029
4029
4029
4029
4029
4029
4029
4029
4029
4029
4029
4029
4029
4029
4029
4029
4029
4029
4029
4029
4029
